93 75 2 24 62 27 37 6 32 49 34 35 59 26 14 12 82 83 85 51 46 21 17 73 43 42 78 87 
22 30 1 66 100 92 69 98 95 60 56 54 88 84 40 50 16 44 9 13 70 79 47 41 48 8 90 
20 29 64 72 31 97 68 65 55 53 58 18 28 89 19 86 57 71 76 10 52 80 81 25 11 77 
5 63 74 61 67 99 94 33 38 39 7 3 23 91 36 15 45 96 
4 

